Minimize
   z: 131 quantity_e_0_0 + 89 quantity_e_1_0 + 72 quantity_e_2_0 + 62 quantity_e_3_0 + 98 quantity_e_4_0 + 42 quantity_e_5_0 + 43 quantity_e_6_0 + 142 quantity_e_7_0 + 111 quantity_e_8_0 + 84 quantity_e_9_0 + 124 quantity_e_10_0 + 155 quantity_e_11_0 + 134 quantity_e_12_0 + 180 quantity_e_13_0 + 34 quantity_e_14_0 + 27 quantity_e_15_0 + 129 quantity_e_16_0 + 133 quantity_e_17_0 + 182 quantity_e_18_0 + 111 quantity_e_19_0 + 147 quantity_e_20_0 + 140 quantity_e_21_0 + 60 quantity_e_22_0 + 169 quantity_e_23_0 + 79 quantity_e_24_0 + 198 quantity_e_25_0 + 83 quantity_e_26_0 + 97 quantity_e_27_0 + 57 quantity_e_28_0 + 186 quantity_e_29_0 + 129 quantity_e_30_0 + 43 quantity_e_31_0 + 201 quantity_e_32_0 + 79 quantity_e_33_0 - 9 quantity_e_34_0 + 79 quantity_e_35_0 + 207 quantity_e_36_0 + 120 quantity_e_37_0 + 95 quantity_e_38_0 + 108 quantity_e_39_0 + 45 quantity_e_40_0 - 43 quantity_e_41_0 + 15 quantity_e_42_0 - 3 quantity_e_43_0 + 137 quantity_e_44_0 + 90 quantity_e_45_0 + 141 quantity_e_46_0 + 52 quantity_e_47_0 - 24 quantity_e_48_0 + 63 quantity_e_49_0 + 111 quantity_e_50_0 + 120 quantity_e_51_0 + 187 quantity_e_52_0 + 197 quantity_e_53_0 + 14 quantity_e_54_0 + 146 quantity_e_55_0 + 200 quantity_e_56_0 + 106 quantity_e_57_0 + 176 quantity_e_58_0 + 103 quantity_e_59_0 + 125 quantity_e_0_1 + 109 quantity_e_1_1 + 69 quantity_e_2_1 + 63 quantity_e_3_1 + 94 quantity_e_4_1 + 40 quantity_e_5_1 + 48 quantity_e_6_1 + 156 quantity_e_7_1 + 108 quantity_e_8_1 + 89 quantity_e_9_1 + 123 quantity_e_10_1 + 168 quantity_e_11_1 + 135 quantity_e_12_1 + 191 quantity_e_13_1 + 37 quantity_e_14_1 + 29 quantity_e_15_1 + 127 quantity_e_16_1 + 142 quantity_e_17_1 + 170 quantity_e_18_1 + 123 quantity_e_19_1 + 154 quantity_e_20_1 + 138 quantity_e_21_1 + 49 quantity_e_22_1 + 177 quantity_e_23_1 + 64 quantity_e_24_1 + 192 quantity_e_25_1 + 82 quantity_e_26_1 + 100 quantity_e_27_1 + 40 quantity_e_28_1 + 203 quantity_e_29_1 + 129 quantity_e_30_1 + 33 quantity_e_31_1 + 206 quantity_e_32_1 + 71 quantity_e_33_1 - 1 quantity_e_34_1 + 65 quantity_e_35_1 + 222 quantity_e_36_1 + 138 quantity_e_37_1 + 101 quantity_e_38_1 + 102 quantity_e_39_1 + 62 quantity_e_40_1 - 40 quantity_e_41_1 + 10 quantity_e_42_1 - 4 quantity_e_43_1 + 148 quantity_e_44_1 + 100 quantity_e_45_1 + 139 quantity_e_46_1 + 55 quantity_e_47_1 - 19 quantity_e_48_1 + 65 quantity_e_49_1 + 115 quantity_e_50_1 + 124 quantity_e_51_1 + 181 quantity_e_52_1 + 202 quantity_e_53_1 + 26 quantity_e_54_1 + 154 quantity_e_55_1 + 187 quantity_e_56_1 + 104 quantity_e_57_1 + 182 quantity_e_58_1 + 93 quantity_e_59_1 + 138 quantity_e_0_2 + 104 quantity_e_1_2 + 71 quantity_e_2_2 + 63 quantity_e_3_2 + 100 quantity_e_4_2 + 53 quantity_e_5_2 + 53 quantity_e_6_2 + 144 quantity_e_7_2 + 121 quantity_e_8_2 + 103 quantity_e_9_2 + 124 quantity_e_10_2 + 162 quantity_e_11_2 + 137 quantity_e_12_2 + 183 quantity_e_13_2 + 30 quantity_e_14_2 + 44 quantity_e_15_2 + 126 quantity_e_16_2 + 136 quantity_e_17_2 + 166 quantity_e_18_2 + 111 quantity_e_19_2 + 147 quantity_e_20_2 + 136 quantity_e_21_2 + 58 quantity_e_22_2 + 183 quantity_e_23_2 + 64 quantity_e_24_2 + 199 quantity_e_25_2 + 79 quantity_e_26_2 + 100 quantity_e_27_2 + 56 quantity_e_28_2 + 200 quantity_e_29_2 + 130 quantity_e_30_2 + 40 quantity_e_31_2 + 211 quantity_e_32_2 + 69 quantity_e_33_2 + 4 quantity_e_34_2 + 77 quantity_e_35_2 + 213 quantity_e_36_2 + 133 quantity_e_37_2 + 98 quantity_e_38_2 + 95 quantity_e_39_2 + 63 quantity_e_40_2 - 37 quantity_e_41_2 - 7 quantity_e_42_2 + 9 quantity_e_43_2 + 142 quantity_e_44_2 + 98 quantity_e_45_2 + 131 quantity_e_46_2 + 53 quantity_e_47_2 - 21 quantity_e_48_2 + 60 quantity_e_49_2 + 108 quantity_e_50_2 + 109 quantity_e_51_2 + 189 quantity_e_52_2 + 194 quantity_e_53_2 + 19 quantity_e_54_2 + 146 quantity_e_55_2 + 190 quantity_e_56_2 + 101 quantity_e_57_2 + 176 quantity_e_58_2 + 100 quantity_e_59_2
Subject to
   contraite_9_0: quantity_e_41_0 + quantity_e_43_0 + quantity_e_45_0 - quantity_e_40_0 - quantity_e_42_0 - quantity_e_44_0 = 489
   contraite_14_0: quantity_e_12_0 + quantity_e_40_0 + quantity_e_42_0 - quantity_e_13_0 - quantity_e_41_0 - quantity_e_43_0 = 538
   contraite_8_0: quantity_e_10_0 + quantity_e_39_0 - quantity_e_11_0 - quantity_e_38_0 = 0
   contraite_16_0: quantity_e_56_0 + quantity_e_58_0 - quantity_e_57_0 - quantity_e_59_0 = 0
   contraite_12_0: quantity_e_38_0 + quantity_e_48_0 - quantity_e_39_0 - quantity_e_49_0 = 1216
   contraite_9_1: quantity_e_41_1 + quantity_e_43_1 + quantity_e_45_1 - quantity_e_40_1 - quantity_e_42_1 - quantity_e_44_1 = 0
   contraite_14_1: quantity_e_12_1 + quantity_e_40_1 + quantity_e_42_1 - quantity_e_13_1 - quantity_e_41_1 - quantity_e_43_1 = 328
   contraite_8_1: quantity_e_10_1 + quantity_e_39_1 - quantity_e_11_1 - quantity_e_38_1 = 0
   contraite_16_1: quantity_e_56_1 + quantity_e_58_1 - quantity_e_57_1 - quantity_e_59_1 = 281
   contraite_12_1: quantity_e_38_1 + quantity_e_48_1 - quantity_e_39_1 - quantity_e_49_1 = 204
   contraite_9_2: quantity_e_41_2 + quantity_e_43_2 + quantity_e_45_2 - quantity_e_40_2 - quantity_e_42_2 - quantity_e_44_2 = 512
   contraite_14_2: quantity_e_12_2 + quantity_e_40_2 + quantity_e_42_2 - quantity_e_13_2 - quantity_e_41_2 - quantity_e_43_2 = 356
   contraite_8_2: quantity_e_10_2 + quantity_e_39_2 - quantity_e_11_2 - quantity_e_38_2 = 368
   contraite_16_2: quantity_e_56_2 + quantity_e_58_2 - quantity_e_57_2 - quantity_e_59_2 = 0
   contraite_12_2: quantity_e_38_2 + quantity_e_48_2 - quantity_e_39_2 - quantity_e_49_2 = 488
   contraite_4_0: quantity_e_24_0 - quantity_e_25_0 <= 919
   contraite_10_0: quantity_e_3_0 + quantity_e_21_0 + quantity_e_25_0 - quantity_e_2_0 - quantity_e_20_0 - quantity_e_24_0 <= 404
   contraite_0_0: quantity_e_0_0 + quantity_e_2_0 + quantity_e_4_0 - quantity_e_1_0 - quantity_e_3_0 - quantity_e_5_0 <= 0
   contraite_3_0: quantity_e_20_0 + quantity_e_22_0 - quantity_e_21_0 - quantity_e_23_0 <= 921
   contraite_1_0: quantity_e_6_0 + quantity_e_8_0 - quantity_e_7_0 - quantity_e_9_0 <= 0
   contraite_4_1: quantity_e_24_1 - quantity_e_25_1 <= 307
   contraite_10_1: quantity_e_3_1 + quantity_e_21_1 + quantity_e_25_1 - quantity_e_2_1 - quantity_e_20_1 - quantity_e_24_1 <= 158
   contraite_0_1: quantity_e_0_1 + quantity_e_2_1 + quantity_e_4_1 - quantity_e_1_1 - quantity_e_3_1 - quantity_e_5_1 <= 0
   contraite_3_1: quantity_e_20_1 + quantity_e_22_1 - quantity_e_21_1 - quantity_e_23_1 <= 0
   contraite_1_1: quantity_e_6_1 + quantity_e_8_1 - quantity_e_7_1 - quantity_e_9_1 <= 349
   contraite_4_2: quantity_e_24_2 - quantity_e_25_2 <= 817
   contraite_10_2: quantity_e_3_2 + quantity_e_21_2 + quantity_e_25_2 - quantity_e_2_2 - quantity_e_20_2 - quantity_e_24_2 <= 55
   contraite_0_2: quantity_e_0_2 + quantity_e_2_2 + quantity_e_4_2 - quantity_e_1_2 - quantity_e_3_2 - quantity_e_5_2 <= 854
   contraite_3_2: quantity_e_20_2 + quantity_e_22_2 - quantity_e_21_2 - quantity_e_23_2 <= 0
   contraite_1_2: quantity_e_6_2 + quantity_e_8_2 - quantity_e_7_2 - quantity_e_9_2 <= 0
   contraite_2_0: quantity_e_11_0 + quantity_e_13_0 + quantity_e_15_0 + quantity_e_17_0 + quantity_e_19_0 - quantity_e_10_0 - quantity_e_12_0 - quantity_e_14_0 - quantity_e_16_0 - quantity_e_18_0 = 0
   contraite_5_0: quantity_e_18_0 + quantity_e_27_0 + quantity_e_29_0 + quantity_e_31_0 - quantity_e_19_0 - quantity_e_26_0 - quantity_e_28_0 - quantity_e_30_0 = 0
   contraite_6_0: quantity_e_33_0 + quantity_e_35_0 - quantity_e_32_0 - quantity_e_34_0 = 0
   contraite_7_0: quantity_e_30_0 + quantity_e_37_0 - quantity_e_31_0 - quantity_e_36_0 = 0
   contraite_11_0: quantity_e_47_0 + quantity_e_49_0 + quantity_e_51_0 - quantity_e_46_0 - quantity_e_48_0 - quantity_e_50_0 = 0
   contraite_13_0: quantity_e_16_0 + quantity_e_34_0 + quantity_e_46_0 + quantity_e_53_0 + quantity_e_55_0 - quantity_e_17_0 - quantity_e_35_0 - quantity_e_47_0 - quantity_e_52_0 - quantity_e_54_0 = 0
   contraite_15_0: quantity_e_14_0 + quantity_e_28_0 + quantity_e_32_0 + quantity_e_44_0 + quantity_e_50_0 + quantity_e_57_0 + quantity_e_59_0 - quantity_e_15_0 - quantity_e_29_0 - quantity_e_33_0 - quantity_e_45_0 - quantity_e_51_0 - quantity_e_56_0 - quantity_e_58_0 = 0
   contraite_17_0: quantity_e_4_0 + quantity_e_36_0 - quantity_e_5_0 - quantity_e_37_0 = 0
   contraite_18_0: quantity_e_0_0 + quantity_e_6_0 + quantity_e_8_0 + quantity_e_52_0 - quantity_e_1_0 - quantity_e_7_0 - quantity_e_9_0 - quantity_e_53_0 = 0
   contraite_19_0: quantity_e_22_0 + quantity_e_26_0 + quantity_e_54_0 - quantity_e_23_0 - quantity_e_27_0 - quantity_e_55_0 = 0
   contraite_2_1: quantity_e_11_1 + quantity_e_13_1 + quantity_e_15_1 + quantity_e_17_1 + quantity_e_19_1 - quantity_e_10_1 - quantity_e_12_1 - quantity_e_14_1 - quantity_e_16_1 - quantity_e_18_1 = 0
   contraite_5_1: quantity_e_18_1 + quantity_e_27_1 + quantity_e_29_1 + quantity_e_31_1 - quantity_e_19_1 - quantity_e_26_1 - quantity_e_28_1 - quantity_e_30_1 = 0
   contraite_6_1: quantity_e_33_1 + quantity_e_35_1 - quantity_e_32_1 - quantity_e_34_1 = 0
   contraite_7_1: quantity_e_30_1 + quantity_e_37_1 - quantity_e_31_1 - quantity_e_36_1 = 0
   contraite_11_1: quantity_e_47_1 + quantity_e_49_1 + quantity_e_51_1 - quantity_e_46_1 - quantity_e_48_1 - quantity_e_50_1 = 0
   contraite_13_1: quantity_e_16_1 + quantity_e_34_1 + quantity_e_46_1 + quantity_e_53_1 + quantity_e_55_1 - quantity_e_17_1 - quantity_e_35_1 - quantity_e_47_1 - quantity_e_52_1 - quantity_e_54_1 = 0
   contraite_15_1: quantity_e_14_1 + quantity_e_28_1 + quantity_e_32_1 + quantity_e_44_1 + quantity_e_50_1 + quantity_e_57_1 + quantity_e_59_1 - quantity_e_15_1 - quantity_e_29_1 - quantity_e_33_1 - quantity_e_45_1 - quantity_e_51_1 - quantity_e_56_1 - quantity_e_58_1 = 0
   contraite_17_1: quantity_e_4_1 + quantity_e_36_1 - quantity_e_5_1 - quantity_e_37_1 = 0
   contraite_18_1: quantity_e_0_1 + quantity_e_6_1 + quantity_e_8_1 + quantity_e_52_1 - quantity_e_1_1 - quantity_e_7_1 - quantity_e_9_1 - quantity_e_53_1 = 0
   contraite_19_1: quantity_e_22_1 + quantity_e_26_1 + quantity_e_54_1 - quantity_e_23_1 - quantity_e_27_1 - quantity_e_55_1 = 0
   contraite_2_2: quantity_e_11_2 + quantity_e_13_2 + quantity_e_15_2 + quantity_e_17_2 + quantity_e_19_2 - quantity_e_10_2 - quantity_e_12_2 - quantity_e_14_2 - quantity_e_16_2 - quantity_e_18_2 = 0
   contraite_5_2: quantity_e_18_2 + quantity_e_27_2 + quantity_e_29_2 + quantity_e_31_2 - quantity_e_19_2 - quantity_e_26_2 - quantity_e_28_2 - quantity_e_30_2 = 0
   contraite_6_2: quantity_e_33_2 + quantity_e_35_2 - quantity_e_32_2 - quantity_e_34_2 = 0
   contraite_7_2: quantity_e_30_2 + quantity_e_37_2 - quantity_e_31_2 - quantity_e_36_2 = 0
   contraite_11_2: quantity_e_47_2 + quantity_e_49_2 + quantity_e_51_2 - quantity_e_46_2 - quantity_e_48_2 - quantity_e_50_2 = 0
   contraite_13_2: quantity_e_16_2 + quantity_e_34_2 + quantity_e_46_2 + quantity_e_53_2 + quantity_e_55_2 - quantity_e_17_2 - quantity_e_35_2 - quantity_e_47_2 - quantity_e_52_2 - quantity_e_54_2 = 0
   contraite_15_2: quantity_e_14_2 + quantity_e_28_2 + quantity_e_32_2 + quantity_e_44_2 + quantity_e_50_2 + quantity_e_57_2 + quantity_e_59_2 - quantity_e_15_2 - quantity_e_29_2 - quantity_e_33_2 - quantity_e_45_2 - quantity_e_51_2 - quantity_e_56_2 - quantity_e_58_2 = 0
   contraite_17_2: quantity_e_4_2 + quantity_e_36_2 - quantity_e_5_2 - quantity_e_37_2 = 0
   contraite_18_2: quantity_e_0_2 + quantity_e_6_2 + quantity_e_8_2 + quantity_e_52_2 - quantity_e_1_2 - quantity_e_7_2 - quantity_e_9_2 - quantity_e_53_2 = 0
   contraite_19_2: quantity_e_22_2 + quantity_e_26_2 + quantity_e_54_2 - quantity_e_23_2 - quantity_e_27_2 - quantity_e_55_2 = 0
Bounds
   quantity_e_0_0 >= 0
   quantity_e_1_0 >= 0
   quantity_e_2_0 >= 0
   quantity_e_3_0 >= 0
   quantity_e_4_0 >= 0
   quantity_e_5_0 >= 0
   quantity_e_6_0 >= 0
   quantity_e_7_0 >= 0
   quantity_e_8_0 >= 0
   quantity_e_9_0 >= 0
   quantity_e_10_0 >= 0
   quantity_e_11_0 >= 0
   quantity_e_12_0 >= 0
   quantity_e_13_0 >= 0
   quantity_e_14_0 >= 0
   quantity_e_15_0 >= 0
   quantity_e_16_0 >= 0
   quantity_e_17_0 >= 0
   quantity_e_18_0 >= 0
   quantity_e_19_0 >= 0
   quantity_e_20_0 >= 0
   quantity_e_21_0 >= 0
   quantity_e_22_0 >= 0
   quantity_e_23_0 >= 0
   quantity_e_24_0 >= 0
   quantity_e_25_0 >= 0
   quantity_e_26_0 >= 0
   quantity_e_27_0 >= 0
   quantity_e_28_0 >= 0
   quantity_e_29_0 >= 0
   quantity_e_30_0 >= 0
   quantity_e_31_0 >= 0
   quantity_e_32_0 >= 0
   quantity_e_33_0 >= 0
   quantity_e_34_0 >= 0
   quantity_e_35_0 >= 0
   quantity_e_36_0 >= 0
   quantity_e_37_0 >= 0
   quantity_e_38_0 >= 0
   quantity_e_39_0 >= 0
   quantity_e_40_0 >= 0
   quantity_e_41_0 >= 0
   quantity_e_42_0 >= 0
   quantity_e_43_0 >= 0
   quantity_e_44_0 >= 0
   quantity_e_45_0 >= 0
   quantity_e_46_0 >= 0
   quantity_e_47_0 >= 0
   quantity_e_48_0 >= 0
   quantity_e_49_0 >= 0
   quantity_e_50_0 >= 0
   quantity_e_51_0 >= 0
   quantity_e_52_0 >= 0
   quantity_e_53_0 >= 0
   quantity_e_54_0 >= 0
   quantity_e_55_0 >= 0
   quantity_e_56_0 >= 0
   quantity_e_57_0 >= 0
   quantity_e_58_0 >= 0
   quantity_e_59_0 >= 0
   quantity_e_0_1 >= 0
   quantity_e_1_1 >= 0
   quantity_e_2_1 >= 0
   quantity_e_3_1 >= 0
   quantity_e_4_1 >= 0
   quantity_e_5_1 >= 0
   quantity_e_6_1 >= 0
   quantity_e_7_1 >= 0
   quantity_e_8_1 >= 0
   quantity_e_9_1 >= 0
   quantity_e_10_1 >= 0
   quantity_e_11_1 >= 0
   quantity_e_12_1 >= 0
   quantity_e_13_1 >= 0
   quantity_e_14_1 >= 0
   quantity_e_15_1 >= 0
   quantity_e_16_1 >= 0
   quantity_e_17_1 >= 0
   quantity_e_18_1 >= 0
   quantity_e_19_1 >= 0
   quantity_e_20_1 >= 0
   quantity_e_21_1 >= 0
   quantity_e_22_1 >= 0
   quantity_e_23_1 >= 0
   quantity_e_24_1 >= 0
   quantity_e_25_1 >= 0
   quantity_e_26_1 >= 0
   quantity_e_27_1 >= 0
   quantity_e_28_1 >= 0
   quantity_e_29_1 >= 0
   quantity_e_30_1 >= 0
   quantity_e_31_1 >= 0
   quantity_e_32_1 >= 0
   quantity_e_33_1 >= 0
   quantity_e_34_1 >= 0
   quantity_e_35_1 >= 0
   quantity_e_36_1 >= 0
   quantity_e_37_1 >= 0
   quantity_e_38_1 >= 0
   quantity_e_39_1 >= 0
   quantity_e_40_1 >= 0
   quantity_e_41_1 >= 0
   quantity_e_42_1 >= 0
   quantity_e_43_1 >= 0
   quantity_e_44_1 >= 0
   quantity_e_45_1 >= 0
   quantity_e_46_1 >= 0
   quantity_e_47_1 >= 0
   quantity_e_48_1 >= 0
   quantity_e_49_1 >= 0
   quantity_e_50_1 >= 0
   quantity_e_51_1 >= 0
   quantity_e_52_1 >= 0
   quantity_e_53_1 >= 0
   quantity_e_54_1 >= 0
   quantity_e_55_1 >= 0
   quantity_e_56_1 >= 0
   quantity_e_57_1 >= 0
   quantity_e_58_1 >= 0
   quantity_e_59_1 >= 0
   quantity_e_0_2 >= 0
   quantity_e_1_2 >= 0
   quantity_e_2_2 >= 0
   quantity_e_3_2 >= 0
   quantity_e_4_2 >= 0
   quantity_e_5_2 >= 0
   quantity_e_6_2 >= 0
   quantity_e_7_2 >= 0
   quantity_e_8_2 >= 0
   quantity_e_9_2 >= 0
   quantity_e_10_2 >= 0
   quantity_e_11_2 >= 0
   quantity_e_12_2 >= 0
   quantity_e_13_2 >= 0
   quantity_e_14_2 >= 0
   quantity_e_15_2 >= 0
   quantity_e_16_2 >= 0
   quantity_e_17_2 >= 0
   quantity_e_18_2 >= 0
   quantity_e_19_2 >= 0
   quantity_e_20_2 >= 0
   quantity_e_21_2 >= 0
   quantity_e_22_2 >= 0
   quantity_e_23_2 >= 0
   quantity_e_24_2 >= 0
   quantity_e_25_2 >= 0
   quantity_e_26_2 >= 0
   quantity_e_27_2 >= 0
   quantity_e_28_2 >= 0
   quantity_e_29_2 >= 0
   quantity_e_30_2 >= 0
   quantity_e_31_2 >= 0
   quantity_e_32_2 >= 0
   quantity_e_33_2 >= 0
   quantity_e_34_2 >= 0
   quantity_e_35_2 >= 0
   quantity_e_36_2 >= 0
   quantity_e_37_2 >= 0
   quantity_e_38_2 >= 0
   quantity_e_39_2 >= 0
   quantity_e_40_2 >= 0
   quantity_e_41_2 >= 0
   quantity_e_42_2 >= 0
   quantity_e_43_2 >= 0
   quantity_e_44_2 >= 0
   quantity_e_45_2 >= 0
   quantity_e_46_2 >= 0
   quantity_e_47_2 >= 0
   quantity_e_48_2 >= 0
   quantity_e_49_2 >= 0
   quantity_e_50_2 >= 0
   quantity_e_51_2 >= 0
   quantity_e_52_2 >= 0
   quantity_e_53_2 >= 0
   quantity_e_54_2 >= 0
   quantity_e_55_2 >= 0
   quantity_e_56_2 >= 0
   quantity_e_57_2 >= 0
   quantity_e_58_2 >= 0
   quantity_e_59_2 >= 0
Integer
   quantity_e_0_0
   quantity_e_1_0
   quantity_e_2_0
   quantity_e_3_0
   quantity_e_4_0
   quantity_e_5_0
   quantity_e_6_0
   quantity_e_7_0
   quantity_e_8_0
   quantity_e_9_0
   quantity_e_10_0
   quantity_e_11_0
   quantity_e_12_0
   quantity_e_13_0
   quantity_e_14_0
   quantity_e_15_0
   quantity_e_16_0
   quantity_e_17_0
   quantity_e_18_0
   quantity_e_19_0
   quantity_e_20_0
   quantity_e_21_0
   quantity_e_22_0
   quantity_e_23_0
   quantity_e_24_0
   quantity_e_25_0
   quantity_e_26_0
   quantity_e_27_0
   quantity_e_28_0
   quantity_e_29_0
   quantity_e_30_0
   quantity_e_31_0
   quantity_e_32_0
   quantity_e_33_0
   quantity_e_34_0
   quantity_e_35_0
   quantity_e_36_0
   quantity_e_37_0
   quantity_e_38_0
   quantity_e_39_0
   quantity_e_40_0
   quantity_e_41_0
   quantity_e_42_0
   quantity_e_43_0
   quantity_e_44_0
   quantity_e_45_0
   quantity_e_46_0
   quantity_e_47_0
   quantity_e_48_0
   quantity_e_49_0
   quantity_e_50_0
   quantity_e_51_0
   quantity_e_52_0
   quantity_e_53_0
   quantity_e_54_0
   quantity_e_55_0
   quantity_e_56_0
   quantity_e_57_0
   quantity_e_58_0
   quantity_e_59_0
   quantity_e_0_1
   quantity_e_1_1
   quantity_e_2_1
   quantity_e_3_1
   quantity_e_4_1
   quantity_e_5_1
   quantity_e_6_1
   quantity_e_7_1
   quantity_e_8_1
   quantity_e_9_1
   quantity_e_10_1
   quantity_e_11_1
   quantity_e_12_1
   quantity_e_13_1
   quantity_e_14_1
   quantity_e_15_1
   quantity_e_16_1
   quantity_e_17_1
   quantity_e_18_1
   quantity_e_19_1
   quantity_e_20_1
   quantity_e_21_1
   quantity_e_22_1
   quantity_e_23_1
   quantity_e_24_1
   quantity_e_25_1
   quantity_e_26_1
   quantity_e_27_1
   quantity_e_28_1
   quantity_e_29_1
   quantity_e_30_1
   quantity_e_31_1
   quantity_e_32_1
   quantity_e_33_1
   quantity_e_34_1
   quantity_e_35_1
   quantity_e_36_1
   quantity_e_37_1
   quantity_e_38_1
   quantity_e_39_1
   quantity_e_40_1
   quantity_e_41_1
   quantity_e_42_1
   quantity_e_43_1
   quantity_e_44_1
   quantity_e_45_1
   quantity_e_46_1
   quantity_e_47_1
   quantity_e_48_1
   quantity_e_49_1
   quantity_e_50_1
   quantity_e_51_1
   quantity_e_52_1
   quantity_e_53_1
   quantity_e_54_1
   quantity_e_55_1
   quantity_e_56_1
   quantity_e_57_1
   quantity_e_58_1
   quantity_e_59_1
   quantity_e_0_2
   quantity_e_1_2
   quantity_e_2_2
   quantity_e_3_2
   quantity_e_4_2
   quantity_e_5_2
   quantity_e_6_2
   quantity_e_7_2
   quantity_e_8_2
   quantity_e_9_2
   quantity_e_10_2
   quantity_e_11_2
   quantity_e_12_2
   quantity_e_13_2
   quantity_e_14_2
   quantity_e_15_2
   quantity_e_16_2
   quantity_e_17_2
   quantity_e_18_2
   quantity_e_19_2
   quantity_e_20_2
   quantity_e_21_2
   quantity_e_22_2
   quantity_e_23_2
   quantity_e_24_2
   quantity_e_25_2
   quantity_e_26_2
   quantity_e_27_2
   quantity_e_28_2
   quantity_e_29_2
   quantity_e_30_2
   quantity_e_31_2
   quantity_e_32_2
   quantity_e_33_2
   quantity_e_34_2
   quantity_e_35_2
   quantity_e_36_2
   quantity_e_37_2
   quantity_e_38_2
   quantity_e_39_2
   quantity_e_40_2
   quantity_e_41_2
   quantity_e_42_2
   quantity_e_43_2
   quantity_e_44_2
   quantity_e_45_2
   quantity_e_46_2
   quantity_e_47_2
   quantity_e_48_2
   quantity_e_49_2
   quantity_e_50_2
   quantity_e_51_2
   quantity_e_52_2
   quantity_e_53_2
   quantity_e_54_2
   quantity_e_55_2
   quantity_e_56_2
   quantity_e_57_2
   quantity_e_58_2
   quantity_e_59_2
End